c File: data_files/evolved_graphs/g3689.col
c
c Auto generated graph
c
p edge 100 1484
e 1 2
e 1 4
e 1 7
e 1 8
e 1 11
e 1 12
e 1 14
e 1 15
e 1 66
e 1 73
e 1 74
e 1 81
e 2 4
e 2 6
e 2 11
e 2 13
e 2 14
e 2 21
e 2 65
e 2 99
e 3 4
e 3 5
e 3 7
e 3 8
e 3 9
e 3 10
e 3 11
e 3 15
e 3 42
e 3 71
e 3 72
e 3 90
e 4 5
e 4 6
e 4 7
e 4 9
e 4 13
e 4 15
e 4 76
e 5 8
e 5 9
e 5 10
e 5 11
e 5 74
e 5 92
e 5 97
e 6 8
e 6 9
e 6 11
e 6 12
e 6 14
e 6 15
e 6 19
e 6 20
e 6 22
e 6 36
e 6 49
e 6 53
e 7 9
e 7 10
e 7 11
e 7 13
e 7 14
e 7 15
e 8 9
e 8 10
e 8 12
e 8 14
e 8 19
e 8 23
e 8 24
e 8 32
e 8 33
e 8 34
e 8 39
e 8 43
e 8 50
e 8 52
e 8 59
e 8 61
e 8 65
e 8 66
e 8 80
e 8 83
e 8 84
e 8 85
e 8 87
e 8 90
e 8 91
e 8 92
e 8 95
e 8 96
e 9 12
e 9 13
e 9 15
e 9 16
e 9 20
e 9 22
e 9 24
e 9 28
e 9 31
e 9 37
e 9 40
e 9 44
e 9 47
e 9 50
e 9 53
e 9 57
e 9 64
e 9 70
e 9 82
e 9 84
e 9 86
e 9 90
e 9 92
e 9 96
e 10 11
e 10 14
e 10 17
e 10 25
e 10 38
e 10 43
e 10 46
e 10 47
e 10 52
e 10 59
e 10 60
e 10 64
e 10 66
e 10 68
e 10 71
e 10 73
e 10 79
e 10 85
e 10 89
e 10 92
e 10 97
e 10 99
e 11 12
e 11 13
e 11 14
e 11 15
e 11 16
e 11 18
e 11 33
e 11 37
e 11 38
e 11 39
e 11 46
e 11 48
e 11 53
e 11 57
e 11 59
e 11 72
e 11 84
e 11 88
e 11 89
e 11 90
e 11 91
e 11 97
e 11 98
e 11 99
e 12 15
e 12 16
e 12 17
e 12 23
e 12 24
e 12 26
e 12 30
e 12 37
e 12 38
e 12 40
e 12 41
e 12 43
e 12 44
e 12 45
e 12 51
e 12 54
e 12 58
e 12 60
e 12 69
e 12 70
e 12 72
e 12 73
e 12 78
e 12 80
e 12 87
e 12 97
e 13 14
e 13 15
e 13 29
e 13 31
e 13 40
e 13 44
e 13 50
e 13 57
e 13 58
e 13 59
e 13 60
e 13 63
e 13 68
e 13 70
e 13 71
e 13 72
e 13 74
e 13 75
e 13 85
e 13 90
e 13 92
e 13 96
e 13 97
e 14 15
e 14 18
e 14 19
e 14 24
e 14 25
e 14 36
e 14 38
e 14 39
e 14 41
e 14 49
e 14 50
e 14 51
e 14 58
e 14 59
e 14 62
e 14 63
e 14 64
e 14 65
e 14 68
e 14 72
e 14 75
e 14 78
e 14 79
e 14 90
e 14 94
e 14 97
e 14 98
e 14 99
e 14 100
e 15 16
e 15 21
e 15 22
e 15 24
e 15 25
e 15 29
e 15 31
e 15 33
e 15 36
e 15 41
e 15 46
e 15 53
e 15 57
e 15 68
e 15 70
e 15 73
e 15 75
e 15 80
e 15 84
e 15 88
e 15 100
e 16 18
e 16 20
e 16 21
e 16 22
e 16 23
e 16 26
e 16 27
e 16 28
e 16 29
e 16 30
e 16 31
e 16 32
e 16 33
e 16 34
e 16 35
e 16 36
e 16 37
e 16 39
e 16 45
e 16 52
e 16 54
e 16 80
e 16 89
e 16 90
e 16 99
e 17 18
e 17 19
e 17 21
e 17 25
e 17 27
e 17 28
e 17 30
e 17 31
e 17 32
e 17 33
e 17 35
e 17 37
e 17 38
e 17 39
e 17 42
e 17 43
e 17 45
e 17 46
e 17 47
e 17 48
e 17 50
e 17 60
e 17 76
e 17 80
e 17 97
e 18 19
e 18 22
e 18 23
e 18 24
e 18 25
e 18 29
e 18 32
e 18 33
e 18 34
e 18 35
e 18 36
e 18 39
e 18 41
e 18 42
e 18 46
e 18 48
e 18 50
e 18 55
e 18 60
e 18 67
e 18 73
e 18 77
e 18 81
e 18 89
e 18 95
e 18 98
e 19 20
e 19 23
e 19 24
e 19 26
e 19 27
e 19 29
e 19 30
e 19 31
e 19 33
e 19 34
e 19 35
e 19 37
e 19 38
e 19 41
e 19 44
e 19 46
e 19 47
e 19 48
e 19 50
e 19 57
e 19 69
e 19 74
e 19 76
e 19 78
e 19 81
e 19 86
e 20 23
e 20 24
e 20 26
e 20 27
e 20 28
e 20 30
e 20 33
e 20 35
e 20 36
e 20 37
e 20 43
e 20 46
e 20 47
e 20 51
e 20 95
e 20 97
e 21 22
e 21 23
e 21 24
e 21 25
e 21 27
e 21 30
e 21 31
e 21 32
e 21 33
e 21 34
e 21 40
e 21 42
e 21 46
e 21 48
e 21 50
e 21 65
e 21 70
e 22 23
e 22 24
e 22 25
e 22 26
e 22 27
e 22 28
e 22 30
e 22 31
e 22 32
e 22 34
e 22 37
e 22 39
e 22 40
e 22 41
e 22 42
e 22 43
e 22 44
e 22 45
e 22 46
e 22 48
e 22 51
e 22 52
e 22 62
e 22 66
e 22 87
e 22 95
e 22 96
e 22 97
e 23 24
e 23 26
e 23 28
e 23 29
e 23 30
e 23 32
e 23 36
e 23 37
e 23 38
e 23 39
e 23 40
e 23 41
e 23 42
e 23 45
e 23 47
e 23 49
e 23 50
e 23 51
e 23 60
e 23 64
e 23 79
e 23 80
e 23 85
e 23 93
e 23 96
e 24 26
e 24 28
e 24 29
e 24 30
e 24 31
e 24 32
e 24 33
e 24 34
e 24 35
e 24 36
e 24 37
e 24 40
e 24 41
e 24 42
e 24 44
e 24 45
e 24 46
e 24 49
e 24 50
e 24 53
e 24 69
e 24 76
e 24 79
e 24 100
e 25 27
e 25 33
e 25 34
e 25 35
e 25 36
e 25 38
e 25 39
e 25 44
e 25 46
e 25 47
e 25 48
e 25 49
e 25 51
e 25 60
e 25 68
e 25 86
e 26 27
e 26 30
e 26 31
e 26 33
e 26 36
e 26 37
e 26 41
e 26 42
e 26 43
e 26 45
e 26 46
e 26 47
e 26 50
e 26 51
e 26 72
e 26 73
e 26 86
e 26 100
e 27 29
e 27 30
e 27 34
e 27 36
e 27 37
e 27 38
e 27 40
e 27 42
e 27 43
e 27 44
e 27 46
e 27 49
e 27 50
e 27 55
e 27 61
e 27 65
e 27 71
e 27 72
e 28 29
e 28 31
e 28 33
e 28 35
e 28 37
e 28 39
e 28 41
e 28 44
e 28 45
e 28 46
e 28 47
e 28 48
e 28 49
e 28 50
e 28 57
e 28 63
e 28 84
e 28 88
e 28 95
e 28 98
e 29 31
e 29 33
e 29 34
e 29 35
e 29 37
e 29 38
e 29 39
e 29 40
e 29 42
e 29 43
e 29 44
e 29 47
e 29 79
e 29 91
e 29 95
e 30 31
e 30 32
e 30 33
e 30 35
e 30 36
e 30 37
e 30 39
e 30 40
e 30 41
e 30 43
e 30 44
e 30 45
e 30 46
e 30 47
e 30 48
e 30 49
e 30 50
e 30 69
e 30 72
e 30 74
e 30 98
e 31 33
e 31 34
e 31 35
e 31 37
e 31 38
e 31 39
e 31 42
e 31 43
e 31 44
e 31 45
e 31 46
e 31 47
e 31 48
e 31 49
e 31 50
e 31 57
e 31 58
e 31 63
e 31 79
e 31 89
e 31 95
e 31 97
e 31 98
e 32 35
e 32 36
e 32 38
e 32 39
e 32 40
e 32 42
e 32 43
e 32 45
e 32 48
e 32 50
e 32 51
e 32 71
e 32 85
e 32 89
e 32 91
e 32 100
e 33 34
e 33 38
e 33 41
e 33 43
e 33 45
e 33 46
e 33 48
e 33 49
e 33 50
e 33 71
e 33 73
e 33 79
e 33 96
e 33 98
e 34 36
e 34 37
e 34 38
e 34 39
e 34 44
e 34 48
e 34 49
e 34 53
e 34 59
e 34 62
e 34 63
e 34 79
e 34 98
e 35 36
e 35 40
e 35 41
e 35 43
e 35 47
e 35 49
e 35 50
e 35 51
e 35 82
e 36 38
e 36 39
e 36 41
e 36 42
e 36 43
e 36 45
e 36 49
e 36 50
e 36 53
e 36 67
e 36 76
e 36 81
e 36 82
e 36 85
e 36 93
e 36 95
e 37 41
e 37 42
e 37 44
e 37 45
e 37 46
e 37 49
e 37 51
e 37 53
e 37 56
e 37 76
e 37 95
e 37 96
e 37 98
e 37 99
e 38 39
e 38 41
e 38 43
e 38 44
e 38 45
e 38 48
e 38 57
e 38 59
e 38 77
e 38 96
e 38 97
e 38 100
e 39 45
e 39 46
e 39 51
e 39 63
e 39 69
e 39 71
e 39 78
e 39 79
e 39 99
e 40 43
e 40 44
e 40 45
e 40 47
e 40 48
e 40 49
e 40 50
e 40 51
e 40 62
e 40 76
e 40 84
e 40 95
e 40 100
e 41 42
e 41 43
e 41 46
e 41 50
e 41 51
e 41 52
e 41 59
e 41 60
e 41 63
e 41 99
e 41 100
e 42 43
e 42 44
e 42 46
e 42 47
e 42 48
e 42 49
e 42 51
e 42 79
e 42 87
e 42 90
e 42 95
e 42 100
e 43 44
e 43 45
e 43 46
e 43 49
e 43 50
e 43 53
e 43 63
e 43 64
e 43 65
e 43 69
e 43 70
e 43 75
e 43 77
e 43 92
e 44 45
e 44 48
e 44 49
e 44 50
e 44 51
e 44 53
e 44 68
e 44 80
e 44 96
e 44 97
e 45 46
e 45 47
e 45 48
e 45 50
e 45 51
e 45 54
e 45 57
e 45 84
e 45 99
e 46 47
e 46 49
e 46 51
e 46 57
e 46 99
e 47 48
e 47 49
e 47 50
e 47 58
e 47 69
e 47 75
e 48 50
e 48 67
e 48 78
e 48 95
e 48 98
e 49 50
e 49 70
e 49 78
e 49 85
e 49 86
e 49 87
e 49 99
e 50 57
e 50 65
e 50 82
e 50 95
e 51 86
e 51 96
e 51 97
e 51 99
e 52 53
e 52 58
e 52 60
e 52 62
e 52 63
e 52 66
e 52 68
e 52 71
e 52 73
e 52 74
e 52 75
e 52 77
e 52 78
e 52 79
e 52 84
e 52 85
e 52 86
e 52 88
e 52 90
e 52 92
e 52 94
e 52 95
e 52 97
e 52 98
e 52 99
e 52 100
e 53 54
e 53 55
e 53 56
e 53 57
e 53 59
e 53 60
e 53 63
e 53 64
e 53 65
e 53 66
e 53 67
e 53 68
e 53 70
e 53 71
e 53 74
e 53 77
e 53 79
e 53 80
e 53 81
e 53 82
e 53 84
e 53 85
e 53 88
e 53 89
e 53 90
e 53 91
e 53 92
e 53 93
e 53 94
e 53 95
e 53 96
e 53 97
e 53 98
e 53 99
e 53 100
e 54 57
e 54 58
e 54 59
e 54 61
e 54 62
e 54 63
e 54 65
e 54 67
e 54 69
e 54 70
e 54 71
e 54 73
e 54 75
e 54 78
e 54 80
e 54 81
e 54 84
e 54 86
e 54 87
e 54 88
e 54 89
e 54 91
e 54 94
e 54 95
e 54 96
e 54 99
e 54 100
e 55 58
e 55 59
e 55 60
e 55 61
e 55 66
e 55 67
e 55 68
e 55 73
e 55 75
e 55 78
e 55 79
e 55 80
e 55 82
e 55 84
e 55 85
e 55 86
e 55 88
e 55 89
e 55 91
e 55 93
e 55 94
e 55 95
e 55 97
e 55 98
e 55 100
e 56 57
e 56 60
e 56 61
e 56 62
e 56 64
e 56 65
e 56 66
e 56 68
e 56 69
e 56 71
e 56 72
e 56 75
e 56 77
e 56 78
e 56 79
e 56 80
e 56 82
e 56 83
e 56 84
e 56 85
e 56 87
e 56 88
e 56 92
e 56 94
e 56 95
e 56 98
e 56 100
e 57 59
e 57 60
e 57 61
e 57 62
e 57 63
e 57 66
e 57 67
e 57 70
e 57 72
e 57 75
e 57 76
e 57 78
e 57 79
e 57 80
e 57 82
e 57 83
e 57 84
e 57 86
e 57 87
e 57 88
e 57 91
e 57 95
e 57 97
e 57 99
e 58 59
e 58 61
e 58 65
e 58 66
e 58 69
e 58 71
e 58 74
e 58 77
e 58 80
e 58 81
e 58 82
e 58 83
e 58 84
e 58 85
e 58 86
e 58 87
e 58 88
e 58 91
e 58 92
e 58 93
e 58 95
e 58 96
e 58 97
e 58 98
e 59 60
e 59 61
e 59 64
e 59 66
e 59 67
e 59 68
e 59 70
e 59 72
e 59 73
e 59 74
e 59 75
e 59 76
e 59 77
e 59 78
e 59 79
e 59 80
e 59 82
e 59 83
e 59 84
e 59 85
e 59 86
e 59 87
e 59 88
e 59 89
e 59 90
e 59 91
e 59 92
e 59 95
e 59 97
e 59 100
e 60 61
e 60 63
e 60 64
e 60 65
e 60 68
e 60 71
e 60 73
e 60 75
e 60 78
e 60 80
e 60 82
e 60 84
e 60 86
e 60 87
e 60 90
e 60 91
e 60 92
e 60 93
e 60 94
e 60 95
e 60 96
e 60 98
e 60 99
e 61 67
e 61 69
e 61 71
e 61 73
e 61 78
e 61 79
e 61 80
e 61 82
e 61 85
e 61 86
e 61 88
e 61 91
e 61 92
e 61 96
e 61 100
e 62 66
e 62 68
e 62 70
e 62 71
e 62 74
e 62 76
e 62 81
e 62 82
e 62 83
e 62 84
e 62 85
e 62 89
e 62 90
e 62 92
e 62 93
e 62 94
e 62 95
e 62 96
e 62 99
e 62 100
e 63 65
e 63 66
e 63 67
e 63 68
e 63 69
e 63 70
e 63 75
e 63 76
e 63 77
e 63 78
e 63 79
e 63 80
e 63 83
e 63 85
e 63 86
e 63 87
e 63 88
e 63 89
e 63 90
e 63 91
e 63 92
e 63 95
e 63 96
e 63 97
e 63 100
e 64 65
e 64 66
e 64 68
e 64 71
e 64 73
e 64 74
e 64 75
e 64 76
e 64 77
e 64 79
e 64 80
e 64 82
e 64 83
e 64 85
e 64 87
e 64 90
e 64 91
e 64 94
e 64 95
e 64 97
e 64 98
e 64 99
e 65 66
e 65 68
e 65 69
e 65 73
e 65 74
e 65 75
e 65 76
e 65 79
e 65 80
e 65 81
e 65 84
e 65 86
e 65 87
e 65 90
e 65 91
e 65 97
e 66 67
e 66 71
e 66 73
e 66 74
e 66 76
e 66 77
e 66 78
e 66 79
e 66 80
e 66 83
e 66 84
e 66 88
e 66 90
e 66 91
e 66 92
e 66 93
e 66 94
e 66 96
e 66 97
e 66 100
e 67 68
e 67 69
e 67 71
e 67 73
e 67 74
e 67 75
e 67 76
e 67 77
e 67 81
e 67 82
e 67 83
e 67 84
e 67 85
e 67 86
e 67 88
e 67 89
e 67 90
e 67 91
e 67 92
e 67 93
e 67 95
e 67 96
e 67 97
e 67 98
e 68 69
e 68 70
e 68 71
e 68 75
e 68 76
e 68 77
e 68 78
e 68 80
e 68 82
e 68 83
e 68 84
e 68 87
e 68 89
e 68 93
e 68 94
e 68 96
e 68 97
e 68 98
e 68 100
e 69 73
e 69 74
e 69 75
e 69 77
e 69 79
e 69 80
e 69 83
e 69 86
e 69 88
e 69 91
e 69 93
e 69 97
e 69 98
e 69 99
e 70 72
e 70 73
e 70 75
e 70 76
e 70 78
e 70 79
e 70 80
e 70 82
e 70 83
e 70 84
e 70 85
e 70 86
e 70 89
e 70 93
e 70 94
e 70 95
e 70 97
e 70 100
e 71 72
e 71 73
e 71 75
e 71 76
e 71 78
e 71 80
e 71 81
e 71 84
e 71 85
e 71 86
e 71 87
e 71 88
e 71 92
e 71 93
e 71 94
e 71 95
e 71 96
e 71 98
e 71 100
e 72 73
e 72 74
e 72 76
e 72 78
e 72 79
e 72 81
e 72 82
e 72 83
e 72 84
e 72 85
e 72 86
e 72 87
e 72 88
e 72 89
e 72 91
e 72 93
e 72 96
e 72 97
e 72 98
e 72 99
e 73 74
e 73 75
e 73 79
e 73 81
e 73 82
e 73 84
e 73 85
e 73 89
e 73 93
e 73 94
e 73 95
e 73 96
e 73 98
e 73 100
e 74 75
e 74 77
e 74 78
e 74 79
e 74 80
e 74 82
e 74 83
e 74 85
e 74 86
e 74 88
e 74 89
e 74 90
e 74 91
e 74 94
e 74 97
e 74 98
e 74 99
e 75 76
e 75 78
e 75 84
e 75 85
e 75 87
e 75 90
e 75 92
e 75 95
e 75 96
e 75 97
e 75 99
e 75 100
e 76 77
e 76 78
e 76 79
e 76 84
e 76 85
e 76 88
e 76 91
e 76 96
e 76 97
e 76 99
e 76 100
e 77 78
e 77 81
e 77 82
e 77 84
e 77 86
e 77 87
e 77 88
e 77 89
e 77 90
e 77 92
e 77 93
e 77 94
e 77 95
e 77 97
e 77 99
e 77 100
e 78 80
e 78 81
e 78 82
e 78 83
e 78 84
e 78 85
e 78 88
e 78 89
e 78 91
e 78 92
e 78 93
e 78 96
e 79 80
e 79 83
e 79 85
e 79 86
e 79 87
e 79 88
e 79 91
e 79 92
e 79 96
e 79 100
e 80 81
e 80 83
e 80 84
e 80 87
e 80 89
e 80 94
e 80 95
e 80 96
e 80 97
e 80 98
e 81 82
e 81 83
e 81 84
e 81 85
e 81 86
e 81 87
e 81 88
e 81 89
e 81 90
e 81 91
e 81 94
e 81 95
e 81 96
e 81 99
e 82 89
e 82 90
e 82 91
e 82 92
e 82 93
e 82 94
e 82 96
e 82 97
e 82 98
e 82 99
e 82 100
e 83 84
e 83 86
e 83 87
e 83 90
e 83 93
e 83 94
e 83 95
e 83 97
e 83 98
e 84 85
e 84 89
e 84 91
e 84 92
e 84 93
e 84 98
e 85 88
e 85 89
e 85 90
e 85 91
e 85 93
e 85 94
e 85 98
e 86 89
e 86 92
e 87 88
e 87 91
e 87 92
e 87 93
e 87 96
e 87 99
e 88 89
e 88 92
e 88 93
e 88 94
e 88 95
e 88 97
e 89 91
e 89 92
e 89 94
e 89 95
e 89 97
e 89 98
e 89 100
e 90 92
e 90 93
e 90 94
e 90 95
e 90 98
e 90 100
e 91 92
e 91 93
e 91 94
e 92 93
e 92 94
e 92 95
e 92 96
e 93 94
e 93 95
e 93 96
e 93 97
e 93 99
e 93 100
e 94 95
e 94 96
e 94 99
e 95 96
e 95 99
e 95 100
e 96 97
e 96 98
e 96 99
e 96 100
e 97 98
e 97 99
e 97 100
e 98 99
e 99 100
